presolving (4 rounds: 4 fast, 3 medium, 2 exhaustive):
 0 deleted vars, 14278 deleted constraints, 12544 added constraints, 0 tightened bounds, 0 added holes, 12544 changed sides, 25088 changed coefficients
 0 implications, 25088 cliques, 0 implied integral variables (0 bin, 0 int, 0 cont)
presolved problem has 1328 variables (1328 bin, 0 int, 0 cont) and 25088 constraints

 time | node  | left  |LP iter|LP it/n|mem/heur|mdpt |vars |cons |rows |cuts |sepa|confs|strbr|  dualbound   | primalbound  |  gap   | compl. 
  130s|     1 |     2 |492570 |     - |   218M |   0 |1328 |  25k|  27k|4652 |225 |   0 |  34 | 2.560000e+02 | 2.400000e+02 |   6.67%| unknown
  373s|   100 |    59 |836375 |3472.8 |   283M |  13 |1328 |  25k|  26k|5882 |  1 | 131 | 531 | 2.523342e+02 | 2.400000e+02 |   5.14%|  31.85%
  541s|   200 |    93 |  1093k|3021.5 |   381M |  20 |1328 |  25k|  26k|7598 |  0 | 202 | 657 | 2.492658e+02 | 2.400000e+02 |   3.86%|  38.02%
  735s|   300 |   121 |  1331k|2805.9 |   441M |  20 |1328 |  25k|  26k|9147 |  1 | 236 | 785 | 2.484796e+02 | 2.400000e+02 |   3.53%|  39.84%
  925s|   400 |   149 |  1593k|2758.0 |   524M |  20 |1328 |  25k|  26k|  11k|  3 | 319 | 922 | 2.475385e+02 | 2.400000e+02 |   3.14%|  42.73%
 1045s|   500 |   163 |  1782k|2584.7 |   573M |  20 |1328 |  25k|  26k|  12k|  0 | 363 |1030 | 2.471130e+02 | 2.400000e+02 |   2.96%|  47.81%
 1164s|   600 |   189 |  1967k|2462.6 |   614M |  20 |1328 |  25k|  26k|  13k|  0 | 409 |1142 | 2.471130e+02 | 2.400000e+02 |   2.96%|  49.70%
 1297s|   700 |   199 |  2151k|2372.7 |   647M |  20 |1328 |  25k|  26k|  13k|  1 | 454 |1262 | 2.467824e+02 | 2.400000e+02 |   2.83%|  52.58%
 1461s|   800 |   209 |  2383k|2366.7 |   704M |  20 |1328 |  25k|  26k|  15k|  1 | 577 |1418 | 2.462886e+02 | 2.400000e+02 |   2.62%|  54.83%
 1540s|   900 |   197 |  2523k|2259.1 |   715M |  20 |1328 |  25k|  26k|  15k|  0 | 665 |1564 | 2.461299e+02 | 2.400000e+02 |   2.55%|  61.03%
 1671s|  1000 |   183 |  2722k|2232.7 |   740M |  20 |1328 |  25k|  26k|  16k|  0 | 770 |1736 | 2.458344e+02 | 2.400000e+02 |   2.43%|  63.36%
 1794s|  1100 |   183 |  2923k|2212.4 |   768M |  20 |1328 |  25k|  26k|  16k|  1 | 868 |1930 | 2.456210e+02 | 2.400000e+02 |   2.34%|  64.51%
 1895s|  1200 |   173 |  3082k|2160.4 |   788M |  20 |1328 |  25k|  26k|  17k|  0 | 926 |2065 | 2.455187e+02 | 2.400000e+02 |   2.30%|  65.59%
 1997s|  1300 |   173 |  3266k|2135.8 |   811M |  20 |1328 |  25k|  26k|  18k|  2 |1013 |2198 | 2.452342e+02 | 2.400000e+02 |   2.18%|  70.64%
 2057s|  1400 |   173 |  3419k|2092.1 |   814M |  20 |1328 |  26k|  26k|  18k|  1 |1112 |2305 | 2.449037e+02 | 2.400000e+02 |   2.04%|  71.49%
 time | node  | left  |LP iter|LP it/n|mem/heur|mdpt |vars |cons |rows |cuts |sepa|confs|strbr|  dualbound   | primalbound  |  gap   | compl. 
 2148s|  1500 |   167 |  3584k|2062.6 |   823M |  20 |1328 |  26k|  26k|  18k|  1 |1185 |2427 | 2.446867e+02 | 2.400000e+02 |   1.95%|  72.51%
 2227s|  1600 |   151 |  3718k|2017.4 |   825M |  20 |1328 |  26k|  26k|  18k|  0 |1257 |2573 | 2.445250e+02 | 2.400000e+02 |   1.89%|  73.46%
 2315s|  1700 |   149 |  3875k|1991.0 |   844M |  20 |1328 |  26k|  26k|  19k|  0 |1304 |2693 | 2.444663e+02 | 2.400000e+02 |   1.86%|  74.11%
 2430s|  1800 |   147 |  4047k|1976.2 |   856M |  20 |1328 |  26k|  26k|  19k|  1 |1393 |2929 | 2.443255e+02 | 2.400000e+02 |   1.80%|  75.59%
 2506s|  1900 |   147 |  4206k|1955.9 |   863M |  20 |1328 |  26k|  26k|  19k|  1 |1501 |3058 | 2.440985e+02 | 2.400000e+02 |   1.71%|  80.78%
 2545s|  2000 |   133 |  4315k|1912.7 |   873M |  20 |1328 |  26k|  26k|  19k|  0 |1503 |3064 | 2.438431e+02 | 2.400000e+02 |   1.60%|  82.52%
 2596s|  2100 |   119 |  4446k|1883.9 |   873M |  20 |1328 |  24k|  26k|  19k|  1 |1606 |3145 | 2.436955e+02 | 2.400000e+02 |   1.54%|  90.04%
 2632s|  2200 |   121 |  4563k|1851.2 |   874M |  20 |1328 |  24k|  26k|  19k|  0 |1623 |3156 | 2.436383e+02 | 2.400000e+02 |   1.52%|  90.35%
 2679s|  2300 |   105 |  4715k|1836.9 |   875M |  20 |1328 |  24k|  26k|  19k|  1 |1659 |3175 | 2.434628e+02 | 2.400000e+02 |   1.44%|  91.02%
 2712s|  2400 |    83 |  4815k|1802.1 |   875M |  20 |1328 |  24k|  26k|  19k|  0 |1702 |3205 | 2.432766e+02 | 2.400000e+02 |   1.37%|  92.17%
 2750s|  2500 |    55 |  4928k|1775.1 |   876M |  20 |1328 |  23k|  26k|  19k|  0 |1738 |3240 | 2.430321e+02 | 2.400000e+02 |   1.26%|  93.07%
 2778s|  2600 |    23 |  5017k|1741.0 |   876M |  20 |1328 |  23k|  26k|  19k|  0 |1764 |3244 | 2.428060e+02 | 2.400000e+02 |   1.17%|  93.88%

SCIP Status        : problem is solved [optimal solution found]
Solving Time (sec) : 2810.09
Solving Nodes      : 2697
Primal Bound       : +2.40000000000000e+02 (261 solutions)
Dual Bound         : +2.40000000000000e+02
Gap                : 0.00 %
SCIP_ILP_DONE
{
  "n": 1328,
  "m": 25088,
  "time_limit": 21600.0,
  "status": "optimal",
  "primal_best": 240.0,
  "dual_bound": 240.0,
  "gap": 0.0,
  "closed": true,
  "found_241": false
}
